NAME : berlin52.tsp
COMMENT : Optimal tour for berlin52.tsp
TYPE : TOUR
DIMENSION : 52
Total Length: 7929.394529270795
TOUR_SECTION
1
49
32
22
18
31
21
42
2
7
17
3
45
19
41
8
9
10
43
33
51
11
52
14
13
47
26
27
28
12
25
4
6
15
5
24
48
38
37
40
39
36
35
34
44
46
16
50
20
23
30
29
-1
EOF
